robust/generate/spp_dkp_Lefebvre_et_al_2026/src/shortest_path_2_3.lp
\ Model sp_2_3
\ LP format - for model browsing. Use MPS format to capture full model detail.
\ Signature: 0x319185d70671b953
Minimize
  35 y[0,1] + 35 y[1,0] + 3.5 r[0,1] + 3.5 r[1,0]
Subject To
 flow_cons_source: y[0,1] - y[1,0] = 1
 flow_cons_target: y[0,1] - y[1,0] = 1
 primal_lower: - 46.98 y[0,1] - 26.1 y[1,0] + 95 u[0,1] + 88 u[1,0] <= 95
 mccormick1[0,1]: - u[0,1] + r[0,1] <= 0
 mccormick1[1,0]: - u[1,0] + r[1,0] <= 0
 mccormick2[0,1]: - y[0,1] + r[0,1] <= 0
 mccormick2[1,0]: - y[1,0] + r[1,0] <= 0
 mccormick3[0,1]: - y[0,1] - u[0,1] + r[0,1] >= -1
 mccormick3[1,0]: - y[1,0] - u[1,0] + r[1,0] >= -1
Bounds
Binaries
 y[0,1] y[1,0] u[0,1] u[1,0] r[0,1] r[1,0]
End
