robust/generate/spp_dkp_Lefebvre_et_al_2026/src/shortest_path_2_3.kp
45
95

[46.98 26.1]

[95 88]
